; benchmark generated from python API
(set-info :status unknown)
(declare-fun x_month () Int)
(declare-fun x_year () Int)
(declare-fun x_day () Int)
(declare-fun y_month () Int)
(declare-fun y_year () Int)
(declare-fun y_day () Int)
(assert
 (let (($x826 (or (= x_month 4) (= x_month 6) (= x_month 9) (= x_month 11))))
 (let ((?x1000 (ite $x826 30 31)))
 (let (($x482 (= (mod x_year 400) 0)))
 (let (($x1109 (= (mod x_year 4) 0)))
 (let ((?x739 (ite (or (and $x1109 (and (distinct (mod x_year 100) 0) true)) $x482) 29 28)))
 (let (($x1101 (= x_month 2)))
 (let (($x1113 (<= x_day (ite $x1101 ?x739 ?x1000))))
 (let (($x1140 (>= x_day 1)))
 (let (($x602 (<= x_month 2)))
 (let (($x934 (>= x_month 1)))
 (let (($x690 (= x_year 2100)))
 (let (($x837 (<= x_month 12)))
 (let (($x1118 (<= x_year 2099)))
 (let (($x1116 (>= x_year 1901)))
 (or (and (= x_year 1900) (>= x_month 3) $x837 $x1140 $x1113) (and $x1116 $x1118 $x934 $x837 $x1140 $x1113) (and $x690 $x934 $x602 $x1140 $x1113)))))))))))))))))
(assert
 (let (($x940 (= y_month 4)))
 (let ((?x1120 (ite (or $x940 (= y_month 6) (= y_month 9) (= y_month 11)) 30 31)))
 (let (($x722 (= (mod y_year 400) 0)))
 (let (($x992 (= (mod y_year 4) 0)))
 (let ((?x985 (ite (or (and $x992 (and (distinct (mod y_year 100) 0) true)) $x722) 29 28)))
 (let (($x500 (= y_month 2)))
 (let (($x1123 (<= y_day (ite $x500 ?x985 ?x1120))))
 (let (($x862 (>= y_day 1)))
 (let (($x1032 (<= y_month 2)))
 (let (($x1028 (>= y_month 1)))
 (let (($x1021 (= y_year 2100)))
 (let (($x1022 (<= y_month 12)))
 (let (($x943 (<= y_year 2099)))
 (let (($x1152 (>= y_year 1901)))
 (or (and (= y_year 1900) (>= y_month 3) $x1022 $x862 $x1123) (and $x1152 $x943 $x1028 $x1022 $x862 $x1123) (and $x1021 $x1028 $x1032 $x862 $x1123)))))))))))))))))
(assert
 (let (($x1097 (= x_day 31)))
 (let (($x774 (= x_month 1)))
 (let (($x781 (= x_year 2023)))
 (and $x781 $x774 $x1097)))))
(assert
 (let ((?x1171 (+ (mod (- (+ x_month (+ (* 0 12) 3)) 1) 12) 1)))
 (let ((?x1164 (ite (or (= ?x1171 4) (= ?x1171 6) (= ?x1171 9) (= ?x1171 11)) 30 31)))
 (let ((?x667 (+ 0 (div (- (+ x_month (+ (* 0 12) 3)) 1) 12))))
 (let ((?x1136 (+ x_year ?x667)))
 (let (($x644 (or (and (= (mod ?x1136 4) 0) (and (distinct (mod ?x1136 100) 0) true)) (= (mod ?x1136 400) 0))))
 (let ((?x1194 (ite (= ?x1171 2) (ite $x644 29 28) ?x1164)))
 (let ((?x1190 (ite (< x_day 1) 1 (ite (> x_day ?x1194) ?x1194 x_day))))
 (let ((?x949 (ite (< ?x1190 1) 1 (ite (> ?x1190 ?x1194) ?x1194 ?x1190))))
 (let ((?x1191 (ite (= 2 ?x1171) (ite $x644 31 31) (ite (= 1 ?x1171) (ite $x644 0 0) 0))))
 (let ((?x989 (ite (= 4 ?x1171) (ite $x644 91 90) (ite (= 3 ?x1171) (ite $x644 60 59) ?x1191))))
 (let ((?x549 (ite (= 6 ?x1171) (ite $x644 152 151) (ite (= 5 ?x1171) (ite $x644 121 120) ?x989))))
 (let ((?x706 (ite (= 8 ?x1171) (ite $x644 213 212) (ite (= 7 ?x1171) (ite $x644 182 181) ?x549))))
 (let ((?x1010 (ite (= 10 ?x1171) (ite $x644 274 273) (ite (= 9 ?x1171) (ite $x644 244 243) ?x706))))
 (let ((?x821 (ite (= 12 ?x1171) (ite $x644 335 334) (ite (= 11 ?x1171) (ite $x644 305 304) ?x1010))))
 (let ((?x705 (- (+ (* 365 (- ?x1136 1)) (div (- ?x1136 1) 4)) (div (- ?x1136 1) 100))))
 (let ((?x687 (- (+ (+ (+ ?x705 (div (- ?x1136 1) 400)) ?x821) (- ?x949 1)) 730179)))
 (let ((?x806 (+ (+ ?x687 0) 730179)))
 (let ((?x656 (mod ?x806 146097)))
 (let ((?x664 (div ?x656 36524)))
 (let ((?x686 (ite (<= 4 ?x664) 3 ?x664)))
 (let ((?x505 (- ?x656 (* ?x686 36524))))
 (let ((?x416 (mod ?x505 1461)))
 (let ((?x898 (div ?x416 365)))
 (let ((?x717 (ite (<= 4 ?x898) 3 ?x898)))
 (let ((?x792 (+ (+ (* (div ?x806 146097) 400) (* ?x686 100)) (* (div ?x505 1461) 4))))
 (let ((?x755 (+ (+ ?x792 ?x717) 1)))
 (let (($x935 (or (and (= (mod ?x755 4) 0) (and (distinct (mod ?x755 100) 0) true)) (= (mod ?x755 400) 0))))
 (let ((?x715 (- ?x416 (* ?x717 365))))
 (let ((?x910 (ite $x935 31 31)))
 (let (($x654 (>= ?x715 ?x910)))
 (let ((?x655 (ite $x654 (+ (- ?x715 ?x910) 1) (+ (- ?x715 (ite $x935 0 0)) 1))))
 (let ((?x507 (ite $x935 60 59)))
 (let (($x403 (>= ?x715 ?x507)))
 (let ((?x414 (ite $x935 91 90)))
 (let (($x552 (>= ?x715 ?x414)))
 (let ((?x611 (ite $x552 (+ (- ?x715 ?x414) 1) (ite $x403 (+ (- ?x715 ?x507) 1) ?x655))))
 (let ((?x938 (ite $x935 121 120)))
 (let (($x472 (>= ?x715 ?x938)))
 (let ((?x750 (ite $x935 152 151)))
 (let (($x780 (>= ?x715 ?x750)))
 (let ((?x556 (ite $x780 (+ (- ?x715 ?x750) 1) (ite $x472 (+ (- ?x715 ?x938) 1) ?x611))))
 (let ((?x727 (ite $x935 182 181)))
 (let (($x605 (>= ?x715 ?x727)))
 (let ((?x701 (ite $x935 213 212)))
 (let (($x730 (>= ?x715 ?x701)))
 (let ((?x520 (ite $x730 (+ (- ?x715 ?x701) 1) (ite $x605 (+ (- ?x715 ?x727) 1) ?x556))))
 (let ((?x584 (ite $x935 244 243)))
 (let (($x733 (>= ?x715 ?x584)))
 (let ((?x601 (ite $x935 274 273)))
 (let (($x731 (>= ?x715 ?x601)))
 (let ((?x928 (ite $x731 (+ (- ?x715 ?x601) 1) (ite $x733 (+ (- ?x715 ?x584) 1) ?x520))))
 (let ((?x653 (ite $x935 305 304)))
 (let (($x775 (>= ?x715 ?x653)))
 (let ((?x546 (ite $x935 335 334)))
 (let (($x550 (>= ?x715 ?x546)))
 (let ((?x466 (ite $x550 (+ (- ?x715 ?x546) 1) (ite $x775 (+ (- ?x715 ?x653) 1) ?x928))))
 (let (($x1037 (= 0 0)))
 (let ((?x522 (ite $x472 5 (ite $x552 4 (ite $x403 3 (ite $x654 2 1))))))
 (let ((?x751 (ite $x733 9 (ite $x730 8 (ite $x605 7 (ite $x780 6 ?x522))))))
 (let (($x1058 (= y_month (ite $x1037 ?x1171 (ite $x550 12 (ite $x775 11 (ite $x731 10 ?x751)))))))
 (and (= y_year (ite $x1037 ?x1136 ?x755)) $x1058 (= y_day (ite $x1037 ?x949 ?x466))))))))))))))))))))))))))))))))))))))))))))))))))))))))))))))))
(assert
 (let (($x1034 (= y_day 30)))
(let (($x940 (= y_month 4)))
(let (($x1090 (= y_year 2023)))
(and $x1090 $x940 $x1034)))))
(check-sat)
